
Gurobi 7.0.2 (linux64, Python) logging started Wed May 10 10:15:12 2017


Gurobi 7.0.2 (linux64, Python) logging started Wed May 10 10:15:29 2017


Gurobi 7.0.2 (linux64, Python) logging started Wed May 10 10:15:53 2017


Gurobi 7.0.2 (linux64, Python) logging started Wed May 10 10:17:04 2017


Gurobi 7.0.2 (linux64, Python) logging started Wed May 10 10:17:13 2017


Gurobi 7.0.2 (linux64, Python) logging started Wed May 10 10:17:47 2017


Gurobi 7.0.2 (linux64, Python) logging started Wed May 10 10:42:56 2017


Gurobi 7.0.2 (linux64, Python) logging started Wed May 10 10:45:00 2017


Gurobi 7.0.2 (linux64, Python) logging started Wed May 10 10:45:35 2017


Gurobi 7.0.2 (linux64, Python) logging started Wed May 10 10:47:58 2017


Gurobi 7.0.2 (linux64, Python) logging started Wed May 10 10:50:32 2017


Gurobi 8.1.1 (linux64, Python) logging started Mon Apr 29 09:51:26 2019

Academic license - for non-commercial use only

Gurobi 8.1.1 (linux64, Python) logging started Mon Apr 29 09:52:23 2019

Academic license - for non-commercial use only

Gurobi 8.1.1 (linux64, Python) logging started Mon Apr 29 09:55:16 2019

Academic license - for non-commercial use only

Gurobi 8.1.1 (linux64, Python) logging started Mon Apr 29 09:57:14 2019

Academic license - for non-commercial use only

Gurobi 8.1.1 (linux64, Python) logging started Mon Apr 29 10:01:15 2019

Academic license - for non-commercial use only

Gurobi 8.1.1 (linux64, Python) logging started Mon Apr 29 10:06:23 2019

Academic license - for non-commercial use only

Gurobi 8.1.1 (linux64, Python) logging started Mon Apr 29 10:07:26 2019

Academic license - for non-commercial use only

Gurobi 8.1.1 (linux64, Python) logging started Mon Apr 29 10:07:46 2019

Academic license - for non-commercial use only

Gurobi 8.1.1 (linux64, Python) logging started Mon Apr 29 10:09:57 2019

Academic license - for non-commercial use only

Gurobi 8.1.1 (linux64, Python) logging started Mon Apr 29 10:11:01 2019

Academic license - for non-commercial use only

Gurobi 8.1.1 (linux64, Python) logging started Mon Apr 29 10:15:24 2019

Academic license - for non-commercial use only

Gurobi 8.1.1 (linux64, Python) logging started Mon Apr 29 10:16:49 2019

Academic license - for non-commercial use only

Gurobi 8.1.1 (linux64, Python) logging started Mon Apr 29 10:17:56 2019

Academic license - for non-commercial use only

Gurobi 8.1.1 (linux64, Python) logging started Mon Apr 29 10:18:01 2019

Academic license - for non-commercial use only

Gurobi 8.1.1 (linux64, Python) logging started Mon Apr 29 10:23:30 2019

Academic license - for non-commercial use only

Gurobi 8.1.1 (linux64, Python) logging started Mon Apr 29 10:24:00 2019

Academic license - for non-commercial use only

Gurobi 8.1.1 (linux64, Python) logging started Mon Apr 29 10:25:22 2019

Academic license - for non-commercial use only

Gurobi 8.1.1 (linux64, Python) logging started Mon Apr 29 10:26:40 2019

Academic license - for non-commercial use only

Gurobi 8.1.1 (linux64, Python) logging started Mon Apr 29 10:26:56 2019

Academic license - for non-commercial use only

Gurobi 8.1.1 (linux64, Python) logging started Mon Apr 29 10:27:31 2019

Academic license - for non-commercial use only

Gurobi 8.1.1 (linux64, Python) logging started Mon Apr 29 10:27:57 2019

Academic license - for non-commercial use only

Gurobi 8.1.1 (linux64, Python) logging started Mon Apr 29 10:28:07 2019

Academic license - for non-commercial use only

Gurobi 8.1.1 (linux64, Python) logging started Mon Apr 29 10:32:22 2019

Academic license - for non-commercial use only

Gurobi 8.1.1 (linux64, Python) logging started Mon Apr 29 10:36:12 2019

Academic license - for non-commercial use only

Gurobi 8.1.1 (linux64, Python) logging started Mon Apr 29 10:37:00 2019

Academic license - for non-commercial use only

Gurobi 8.1.1 (linux64, Python) logging started Mon Apr 29 10:37:35 2019

Academic license - for non-commercial use only

Gurobi 8.1.1 (linux64, Python) logging started Mon Apr 29 10:38:35 2019

Academic license - for non-commercial use only

Gurobi 8.1.1 (linux64, Python) logging started Mon Apr 29 10:38:48 2019

Academic license - for non-commercial use only

Gurobi 8.1.1 (linux64, Python) logging started Mon Apr 29 10:39:15 2019

Academic license - for non-commercial use only

Gurobi 8.1.1 (linux64, Python) logging started Mon Apr 29 10:39:46 2019

Academic license - for non-commercial use only

Gurobi 8.1.1 (linux64, Python) logging started Mon Apr 29 10:42:03 2019

Academic license - for non-commercial use only

Gurobi 8.1.1 (linux64, Python) logging started Mon Apr 29 10:45:58 2019

Academic license - for non-commercial use only

Gurobi 8.1.1 (linux64, Python) logging started Mon Apr 29 10:46:49 2019

Academic license - for non-commercial use only

Gurobi 8.1.1 (linux64, Python) logging started Mon Apr 29 10:47:29 2019

Academic license - for non-commercial use only

Gurobi 8.1.1 (linux64, Python) logging started Mon Apr 29 16:34:36 2019

Academic license - for non-commercial use only

Gurobi 8.1.1 (linux64, Python) logging started Mon Apr 29 16:34:58 2019

Academic license - for non-commercial use only

Gurobi 8.1.1 (linux64, Python) logging started Mon Apr 29 16:35:45 2019

Academic license - for non-commercial use only

Gurobi 8.1.1 (linux64, Python) logging started Mon Apr 29 16:38:58 2019

Academic license - for non-commercial use only

Gurobi 8.1.1 (linux64, Python) logging started Mon Apr 29 16:39:42 2019

Academic license - for non-commercial use only

Gurobi 8.1.1 (linux64, Python) logging started Mon Apr 29 16:45:35 2019

Academic license - for non-commercial use only

Gurobi 8.1.1 (linux64, Python) logging started Mon Apr 29 16:48:23 2019

Academic license - for non-commercial use only

Gurobi 8.1.1 (linux64, Python) logging started Mon Apr 29 16:48:42 2019

Academic license - for non-commercial use only

Gurobi 8.1.1 (linux64, Python) logging started Mon Apr 29 16:49:46 2019

Academic license - for non-commercial use only

Gurobi 8.1.1 (linux64, Python) logging started Mon Apr 29 16:50:20 2019

Academic license - for non-commercial use only

Gurobi 8.1.1 (linux64, Python) logging started Mon Apr 29 16:51:02 2019

Academic license - for non-commercial use only

Gurobi 8.1.1 (linux64, Python) logging started Mon Apr 29 16:51:36 2019

Academic license - for non-commercial use only

Gurobi 8.1.1 (linux64, Python) logging started Mon Apr 29 16:52:28 2019

Academic license - for non-commercial use only

Gurobi 8.1.1 (linux64, Python) logging started Mon Apr 29 16:54:39 2019

Academic license - for non-commercial use only

Gurobi 8.1.1 (linux64, Python) logging started Mon Apr 29 16:55:41 2019

Academic license - for non-commercial use only

Gurobi 8.1.1 (linux64, Python) logging started Mon Apr 29 16:56:15 2019

Academic license - for non-commercial use only

Gurobi 8.1.1 (linux64, Python) logging started Mon Apr 29 16:57:29 2019

Academic license - for non-commercial use only

Gurobi 8.1.1 (linux64, Python) logging started Mon Apr 29 16:58:32 2019

Academic license - for non-commercial use only

Gurobi 8.1.1 (linux64, Python) logging started Mon Apr 29 17:00:03 2019

Academic license - for non-commercial use only

Gurobi 8.1.1 (linux64, Python) logging started Mon Apr 29 17:00:37 2019

Academic license - for non-commercial use only

Gurobi 8.1.1 (linux64, Python) logging started Mon Apr 29 17:03:48 2019

Academic license - for non-commercial use only
